W=7;
H=5;

MAX_TIME=20;
MAX_TRACKS=11;

TARGET=(3,7);

TRAINS=[(5,1,TOP),(1,1,DOWN)];
DECOYS=[];

INIT_POS=[
(1,1,STRAIGHT_TD),
(2,2,STRAIGHT_RL),
(2,4,DSWITCH_R_L_D),
(3,5,STRAIGHT_RL),
(3,6,ESWITCH_R_L_D),
(3,7,STRAIGHT_RL),
(4,2,STRAIGHT_RL),
(4,4,DSWITCH_R_L_T),
(5,1,STRAIGHT_TD),
];
TUNNEL_PAIRS=[];

GATES=[
(3,5,2,false),
];
ACTIVATIONS=[
(2,2,1),
(4,2,2),
];

DSWITCHES=[
(2,4,2),
(4,4,1),
];
STATIONS=[];
